;;^(\w)\1{3,}$

(set-option :produce-models true)
(set-option :inline-size-limit 10000)

(declare-const var0 String)

(assert (str.in.re var0 (re.* (re.range "\x01" "\xff"))))

(assert (str.in.re var0 (re.++ (re.++ re.begin-anchor (re.++ ((_ re.capture 1) (re.union (re.range "a" "z") (re.union (re.range "A" "Z") (re.union (re.range "0" "9") (str.to.re "_"))))) ((_ re.loop 0 3) (_ re.reference 1)))) re.end-anchor)))

(assert (> (str.len var0) 10))

(check-sat)
(get-model)
